39338 42089 
39209 42111 
39253 42107 
38652 42420 
39643 41712 
38737 42352 
39834 41585 
39477 41971 
38916 42294 
38444 42535 
38960 42290 
39184 42154 
39809 41630 
39913 41548 
38359 42603 
40245 40747 
39238 42108 
40195 40976 
39595 41720 
39952 41334 
39557 41816 
40221 40765 
40100 41102 
40583 40415 
40134 40978 
38000 42632 
39724 41698 
37869 42718 
38610 42442 
38695 42374 
40055 41288 
40594 40152 
40282 40665 
41036 39224 
40598 40044 
40862 40012 
38386 42578 
41107 39016 
38454 42447 
40214 40833 
40939 39614 
41047 39190 
38044 42628 
37982 42688 
40507 40650 
41032 39537 
38483 42444 
37297 42871 
41344 38667 
36923 42879 
41384 37967 
41205 39012 
37382 42803 
41401 37959 
37538 42756 
37717 42742 
